cats/auctions/32goods/32gmixedbL3/1b0000.lp
max

290228x0 

st

 <= 1

 <= 1

 <= 1

 <= 1

 <= 1

 <= 1

 <= 1

 <= 1

 <= 1

 <= 1

 <= 1

 <= 1

 <= 1

 <= 1

 <= 1

 <= 1

 <= 1

x0  <= 1

 <= 1

 <= 1

 <= 1

x0  <= 1

 <= 1

 <= 1

 <= 1

 <= 1

 <= 1

x0  <= 1

 <= 1

 <= 1

 <= 1

 <= 1

integer

x0 

end
