cats/auctions/32goods/32gmixedbL3/1b0000.txt
%% File generated by CATS v.2.1Thu Jun 27 17:29:30 2013

%% The CATS webpage is http://robotics.stanford.edu/CATS

%% PARAMETER SETTINGS:
% Goods: 32; Bids: 1; Distribution: L3; Runs: 1; Seed: 1372348345
% Legacy distribution parameters:
% Number of goods chosen according to Constant distribution (const_goods = 3).
% Price chosen according to Fixed Random distribution (low_fixed = 0, high_fixed = 1000).


goods 32
bids 1
dummy 0

0	290228	17	21	27	#
